n= 4
m= 50
1000
2000
2500
3000
137	48	6
290	54	6
256	40	5
168	40	8
454	35	7
91	81	9
143	72	8
29	48	6
386	49	7
467	45	5
314	35	7
366	56	7
169	81	9
389	54	9
217	56	8
340	63	7
142	35	5
168	81	9
159	35	7
415	72	9
381	54	9
405	35	5
247	45	9
209	72	9
263	40	8
344	30	5
179	64	8
141	35	7
261	49	7
261	48	6
110	45	9
533	48	6
66	30	5
505	49	7
131	72	8
530	54	6
590	40	5
110	25	5
451	63	7
599	35	7
251	30	6
406	42	7
184	81	9
153	42	7
103	72	9
514	63	9
199	54	9
210	35	5
409	56	8
575	54	6
